results/res_prop_muc/res_Cimatti_mathsat_cores/QF_LIA/FISCHER1-5-fair.smt.smt2.res
unsat
( c0
  c1
  c103
  c109
  c112
  c118
  c121
  c125
  c127
  c13
  c136
  c140
  c143
  c149
  c158
  c162
  c165
  c19
  c2
  c261
  c265
  c272
  c295
  c315
  c317
  c353
  c355
  c356
  c357
  c358
  c359
  c360
  c361
  c362
  c363
  c364
  c365
  c368
  c372
  c376
  c379
  c389
  c390
  c395
  c399
  c400
  c405
  c407
  c409
  c410
  c415
  c420
  c426
  c429
  c430
  c431
  c432
  c433
  c54
  c55
  c56
  c57
  c58
  c6
  c63
  c68
  c77
  c81
  c87
  c9
  c90
  c96
  c99 )
